(set-info :smt-lib-version 2.6)
(set-logic QF_S)
(set-info :source |
Generated by: Murphy Berzish, Mitja Kulczynski, Federico Mora, Florin Manea, Joel Day, Dirk Nowotka, Vijay Ganesh, Zhengyang Lu
Generated on: 2020-10-01
Description: Translated from a collection of real-world regex queries, AutomataArk, collected by Loris D’Antoni and Fang Wang: https://github.com/lorisdanto/automatark
Application: Evaluate solvers on real-world regex queries
Target solver: Z3str3RE, CVC4, OSTRICH, Z3seq, Z3str3, Z3-Trau
Publications: Berzish, M., Kulczynski, M., Mora, F., Manea, F., Day, J. D., Nowotka, D., & Ganesh, V. (2021, July). An SMT solver for regular expressions and linear arithmetic over string length. In CAV 2021.
|)
(set-info :license "https://creativecommons.org/licenses/by/4.0/")
(set-info :category "industrial")
(set-info :status unknown)

(declare-const X String)
(assert (str.in_re X (re.++ (str.to_re "/") ((_ re.loop 100 300) (re.union (re.range "a" "z") (re.range "0" "9") (str.to_re "/") (str.to_re "+") (str.to_re "="))) (str.to_re "/Pi\u{a}"))))
(assert (str.in_re X (re.++ (str.to_re "/filename=") (re.* (re.comp (str.to_re "\u{a}"))) (str.to_re ".jpeg/i\u{a}"))))
(assert (not (str.in_re X (re.++ (str.to_re "//3/") ((_ re.loop 2 2) (re.range "A" "Z")) (str.to_re "/") ((_ re.loop 32 32) (re.union (re.range "a" "f") (re.range "0" "9"))) (str.to_re ".djvu/\u{a}")))))
(assert (not (str.in_re X (re.++ (str.to_re "L") ((_ re.loop 26 33) (re.union (re.range "a" "z") (re.range "A" "Z") (re.range "0" "9"))) (str.to_re "\u{a}")))))
(assert (not (str.in_re X (re.++ (str.to_re "//") ((_ re.loop 16 17) (re.union (re.range "A" "Z") (re.range "a" "z") (re.range "0" "9") (str.to_re "+") (str.to_re "~") (str.to_re "="))) (str.to_re "/") ((_ re.loop 35 40) (re.union (re.range "A" "Z") (re.range "a" "z") (re.range "0" "9") (str.to_re "+") (str.to_re "~") (str.to_re "="))) (str.to_re "/") ((_ re.loop 8 8) (re.union (re.range "A" "Z") (re.range "a" "z") (re.range "0" "9") (str.to_re "+") (str.to_re "~") (str.to_re "="))) (str.to_re "/") (re.* (re.union (re.range "A" "Z") (re.range "a" "z") (re.range "0" "9") (str.to_re "+") (str.to_re "~") (str.to_re "="))) (str.to_re "/") ((_ re.loop 12 30) (re.union (re.range "A" "Z") (re.range "a" "z") (re.range "0" "9") (str.to_re "+") (str.to_re "~") (str.to_re "="))) (str.to_re "/I\u{a}")))))
(check-sat)

(exit)
